%mem=16GB
%chk=name.chk
%nprocshared=8
# opt freq b3lyp/6-311g(d,p) geom=connectivity

Title Card Required

0 1
 C                 1.09370  -2.29325  -0.00000
 C                 1.04788  -0.98044   0.00001
 C                -0.21101  -0.18848   0.00001
 C                -0.24984   1.12760  -0.00000
 C                -1.53405   1.94961  -0.00000
 H                 2.02928  -2.83459  -0.00000
 H                 0.19686  -2.89753  -0.00000
 H                 1.96670  -0.40401   0.00001
 H                -1.13051  -0.76261   0.00001
 H                 0.67787   1.68902  -0.00001
 H                -1.31113   3.01170   0.00000
 H                -2.13768   1.73052  -0.87798
 H                -2.13768   1.73051   0.87796

 1 2 2.0 6 1.0 7 1.0
 2 3 1.0 8 1.0
 3 4 2.0 9 1.0
 4 5 1.0 10 1.0
 5 11 1.0 12 1.0 13 1.0
 6
 7
 8
 9
 10
 11
 12
 13
