%mem=8GB
%chk=71_23_8.chk
%nprocshared=8
#T opt freq b3lyp/3-21g pop=(full,nbo) geom=(connectivity,printinputorient)

Title Card Required

0 1
 C                -0.58737  -1.31448   0.00000
 C                -0.62335   0.22556   0.00000
 C                -2.06786   0.77671  -0.00000
 O                -2.00430   2.21051   0.00000
 H                 0.43827  -1.67038   0.00000
 H                -1.08441  -1.71222   0.87993
 H                -1.08442  -1.71222  -0.87992
 H                -0.10379   0.60647   0.87691
 H                -0.10379   0.60647  -0.87690
 H                -2.60119   0.40354  -0.88343
 H                -2.60119   0.40354   0.88342
 H                -2.95444   2.49218  -0.00000

 1 2 1.0 5 1.0 6 1.0 7 1.0
 2 3 1.0 8 1.0 9 1.0
 3 4 1.0 10 1.0 11 1.0
 4 12 1.0
 5
 6
 7
 8
 9
 10
 11
 12
